(declare-const BAV1 Bool)
(declare-const BAV2 Bool)
(declare-const BAV3 Bool)
(declare-const GEN6 Int)
(declare-const GEN5 Int)
(declare-const GEN4 Int)
(declare-const GEN3 Int)
(declare-const GEN2 Int)
(declare-const GEN1 Int)
(declare-const A0 (Array Int Int))
(declare-const A1 (Array Int Int))
(assert (= A0 ((as const (Array Int Int)) GEN1)))
(assert (= A1 ((as const (Array Int Int)) GEN2)))
(assert (= (store A0 GEN3 GEN4) (store A1 GEN5 GEN6)))
(assert (= BAV1 (= A0 ((as const (Array Int Int)) GEN1))))
(assert (= BAV2 (= A1 ((as const (Array Int Int)) GEN2))))
(assert (= BAV3 (= (store A0 GEN3 GEN4) (store A1 GEN5 GEN6))))
(check-sat)
(get-model)